p cnf 252 642
-18 1 0
-18 -2 0
-19 -1 0
-19 2 0
20 18 19 0
-21 3 0
-21 -4 0
-22 -3 0
-22 4 0
23 21 22 0
24 -20 -23 0
-25 5 0
-25 -6 0
-26 -5 0
-26 6 0
27 25 26 0
28 -24 -27 0
-29 7 0
-29 -8 0
-30 -7 0
-30 8 0
31 29 30 0
32 -28 -31 0
-33 9 0
-33 -10 0
-34 -9 0
-34 10 0
35 33 34 0
36 -32 -35 0
37 -11 12 0
38 11 -12 0
-39 -37 0
-39 -38 0
-40 11 0
-40 13 0
40 -11 -13 0
-41 9 0
-41 40 0
41 -9 -40 0
-42 9 0
-42 13 0
42 -9 -13 0
-43 7 0
-43 42 0
43 -7 -42 0
-44 -7 0
-44 -42 0
44 7 42 0
-45 -43 0
-45 -44 0
45 43 44 0
-46 41 0
-46 45 0
46 -41 -45 0
-47 -41 0
-47 -45 0
47 41 45 0
-48 -46 0
-48 -47 0
48 46 47 0
-49 11 0
-49 14 0
49 -11 -14 0
-50 48 0
-50 49 0
50 -48 -49 0
-51 -43 0
-51 -46 0
51 43 46 0
-52 7 0
-52 13 0
52 -7 -13 0
-53 5 0
-53 52 0
53 -5 -52 0
-54 -5 0
-54 -52 0
54 5 52 0
-55 -53 0
-55 -54 0
55 53 54 0
-56 -51 0
-56 55 0
56 51 -55 0
-57 51 0
-57 -55 0
57 -51 55 0
-58 -56 0
-58 -57 0
58 56 57 0
-59 9 0
-59 14 0
59 -9 -14 0
-60 58 0
-60 59 0
60 -58 -59 0
-61 -58 0
-61 -59 0
61 58 59 0
-62 -60 0
-62 -61 0
62 60 61 0
-63 50 0
-63 62 0
63 -50 -62 0
-64 -50 0
-64 -62 0
64 50 62 0
-65 -63 0
-65 -64 0
65 63 64 0
-66 11 0
-66 15 0
66 -11 -15 0
-67 65 0
-67 66 0
67 -65 -66 0
-68 -60 0
-68 -63 0
68 60 63 0
-69 -53 0
-69 -56 0
69 53 56 0
-70 5 0
-70 13 0
70 -5 -13 0
-71 3 0
-71 70 0
71 -3 -70 0
-72 -3 0
-72 -70 0
72 3 70 0
-73 -71 0
-73 -72 0
73 71 72 0
-74 -69 0
-74 73 0
74 69 -73 0
-75 69 0
-75 -73 0
75 -69 73 0
-76 -74 0
-76 -75 0
76 74 75 0
-77 7 0
-77 14 0
77 -7 -14 0
-78 76 0
-78 77 0
78 -76 -77 0
-79 -76 0
-79 -77 0
79 76 77 0
-80 -78 0
-80 -79 0
80 78 79 0
-81 -68 0
-81 80 0
81 68 -80 0
-82 68 0
-82 -80 0
82 -68 80 0
-83 -81 0
-83 -82 0
83 81 82 0
-84 9 0
-84 15 0
84 -9 -15 0
-85 83 0
-85 84 0
85 -83 -84 0
-86 -83 0
-86 -84 0
86 83 84 0
-87 -85 0
-87 -86 0
87 85 86 0
-88 67 0
-88 87 0
88 -67 -87 0
-89 -67 0
-89 -87 0
89 67 87 0
-90 -88 0
-90 -89 0
90 88 89 0
-91 11 0
-91 16 0
91 -11 -16 0
-92 90 0
-92 91 0
92 -90 -91 0
-93 -85 0
-93 -88 0
93 85 88 0
-94 -78 0
-94 -81 0
94 78 81 0
-95 -71 0
-95 -74 0
95 71 74 0
-96 3 0
-96 13 0
96 -3 -13 0
-97 1 0
-97 96 0
97 -1 -96 0
-98 -1 0
-98 -96 0
98 1 96 0
-99 -97 0
-99 -98 0
99 97 98 0
-100 -95 0
-100 99 0
100 95 -99 0
-101 95 0
-101 -99 0
101 -95 99 0
-102 -100 0
-102 -101 0
102 100 101 0
-103 5 0
-103 14 0
103 -5 -14 0
-104 102 0
-104 103 0
104 -102 -103 0
-105 -102 0
-105 -103 0
105 102 103 0
-106 -104 0
-106 -105 0
106 104 105 0
-107 -94 0
-107 106 0
107 94 -106 0
-108 94 0
-108 -106 0
108 -94 106 0
-109 -107 0
-109 -108 0
109 107 108 0
-110 7 0
-110 15 0
110 -7 -15 0
-111 109 0
-111 110 0
111 -109 -110 0
-112 -109 0
-112 -110 0
112 109 110 0
-113 -111 0
-113 -112 0
113 111 112 0
-114 -93 0
-114 113 0
114 93 -113 0
-115 93 0
-115 -113 0
115 -93 113 0
-116 -114 0
-116 -115 0
116 114 115 0
-117 9 0
-117 16 0
117 -9 -16 0
-118 116 0
-118 117 0
118 -116 -117 0
-119 -116 0
-119 -117 0
119 116 117 0
-120 -118 0
-120 -119 0
120 118 119 0
-121 92 0
-121 120 0
121 -92 -120 0
-122 -92 0
-122 -120 0
122 92 120 0
-123 -121 0
-123 -122 0
123 121 122 0
-124 11 0
-124 17 0
124 -11 -17 0
-125 123 0
-125 124 0
125 -123 -124 0
-126 -123 0
-126 -124 0
126 123 124 0
-127 -125 0
-127 -126 0
127 125 126 0
-128 12 0
-128 13 0
128 -12 -13 0
-129 10 0
-129 128 0
129 -10 -128 0
-130 10 0
-130 13 0
130 -10 -13 0
-131 8 0
-131 130 0
131 -8 -130 0
-132 -8 0
-132 -130 0
132 8 130 0
-133 -131 0
-133 -132 0
133 131 132 0
-134 129 0
-134 133 0
134 -129 -133 0
-135 -129 0
-135 -133 0
135 129 133 0
-136 -134 0
-136 -135 0
136 134 135 0
-137 12 0
-137 14 0
137 -12 -14 0
-138 136 0
-138 137 0
138 -136 -137 0
-139 -131 0
-139 -134 0
139 131 134 0
-140 8 0
-140 13 0
140 -8 -13 0
-141 6 0
-141 140 0
141 -6 -140 0
-142 -6 0
-142 -140 0
142 6 140 0
-143 -141 0
-143 -142 0
143 141 142 0
-144 -139 0
-144 143 0
144 139 -143 0
-145 139 0
-145 -143 0
145 -139 143 0
-146 -144 0
-146 -145 0
146 144 145 0
-147 10 0
-147 14 0
147 -10 -14 0
-148 146 0
-148 147 0
148 -146 -147 0
-149 -146 0
-149 -147 0
149 146 147 0
-150 -148 0
-150 -149 0
150 148 149 0
-151 138 0
-151 150 0
151 -138 -150 0
-152 -138 0
-152 -150 0
152 138 150 0
-153 -151 0
-153 -152 0
153 151 152 0
-154 12 0
-154 15 0
154 -12 -15 0
-155 153 0
-155 154 0
155 -153 -154 0
-156 -148 0
-156 -151 0
156 148 151 0
-157 -141 0
-157 -144 0
157 141 144 0
-158 6 0
-158 13 0
158 -6 -13 0
-159 4 0
-159 158 0
159 -4 -158 0
-160 -4 0
-160 -158 0
160 4 158 0
-161 -159 0
-161 -160 0
161 159 160 0
-162 -157 0
-162 161 0
162 157 -161 0
-163 157 0
-163 -161 0
163 -157 161 0
-164 -162 0
-164 -163 0
164 162 163 0
-165 8 0
-165 14 0
165 -8 -14 0
-166 164 0
-166 165 0
166 -164 -165 0
-167 -164 0
-167 -165 0
167 164 165 0
-168 -166 0
-168 -167 0
168 166 167 0
-169 -156 0
-169 168 0
169 156 -168 0
-170 156 0
-170 -168 0
170 -156 168 0
-171 -169 0
-171 -170 0
171 169 170 0
-172 10 0
-172 15 0
172 -10 -15 0
-173 171 0
-173 172 0
173 -171 -172 0
-174 -171 0
-174 -172 0
174 171 172 0
-175 -173 0
-175 -174 0
175 173 174 0
-176 155 0
-176 175 0
176 -155 -175 0
-177 -155 0
-177 -175 0
177 155 175 0
-178 -176 0
-178 -177 0
178 176 177 0
-179 12 0
-179 16 0
179 -12 -16 0
-180 178 0
-180 179 0
180 -178 -179 0
-181 -173 0
-181 -176 0
181 173 176 0
-182 -166 0
-182 -169 0
182 166 169 0
-183 -159 0
-183 -162 0
183 159 162 0
-184 4 0
-184 13 0
184 -4 -13 0
-185 2 0
-185 184 0
185 -2 -184 0
-186 -2 0
-186 -184 0
186 2 184 0
-187 -185 0
-187 -186 0
187 185 186 0
-188 -183 0
-188 187 0
188 183 -187 0
-189 183 0
-189 -187 0
189 -183 187 0
-190 -188 0
-190 -189 0
190 188 189 0
-191 6 0
-191 14 0
191 -6 -14 0
-192 190 0
-192 191 0
192 -190 -191 0
-193 -190 0
-193 -191 0
193 190 191 0
-194 -192 0
-194 -193 0
194 192 193 0
-195 -182 0
-195 194 0
195 182 -194 0
-196 182 0
-196 -194 0
196 -182 194 0
-197 -195 0
-197 -196 0
197 195 196 0
-198 8 0
-198 15 0
198 -8 -15 0
-199 197 0
-199 198 0
199 -197 -198 0
-200 -197 0
-200 -198 0
200 197 198 0
-201 -199 0
-201 -200 0
201 199 200 0
-202 -181 0
-202 201 0
202 181 -201 0
-203 181 0
-203 -201 0
203 -181 201 0
-204 -202 0
-204 -203 0
204 202 203 0
-205 10 0
-205 16 0
205 -10 -16 0
-206 204 0
-206 205 0
206 -204 -205 0
-207 -204 0
-207 -205 0
207 204 205 0
-208 -206 0
-208 -207 0
208 206 207 0
-209 180 0
-209 208 0
209 -180 -208 0
-210 -180 0
-210 -208 0
210 180 208 0
-211 -209 0
-211 -210 0
211 209 210 0
-212 12 0
-212 17 0
212 -12 -17 0
-213 211 0
-213 212 0
213 -211 -212 0
-214 -211 0
-214 -212 0
214 211 212 0
-215 -213 0
-215 -214 0
215 213 214 0
216 -127 215 0
217 127 -215 0
-218 -216 0
-218 -217 0
-219 -90 0
-219 -91 0
219 90 91 0
-220 -92 0
-220 -219 0
220 92 219 0
-221 -178 0
-221 -179 0
221 178 179 0
-222 -180 0
-222 -221 0
222 180 221 0
223 -220 222 0
224 220 -222 0
-225 -223 0
-225 -224 0
-226 218 0
-226 225 0
-227 -65 0
-227 -66 0
227 65 66 0
-228 -67 0
-228 -227 0
228 67 227 0
-229 -153 0
-229 -154 0
229 153 154 0
-230 -155 0
-230 -229 0
230 155 229 0
231 -228 230 0
232 228 -230 0
-233 -231 0
-233 -232 0
-234 226 0
-234 233 0
-235 -48 0
-235 -49 0
235 48 49 0
-236 -50 0
-236 -235 0
236 50 235 0
-237 -136 0
-237 -137 0
237 136 137 0
-238 -138 0
-238 -237 0
238 138 237 0
239 -236 238 0
240 236 -238 0
-241 -239 0
-241 -240 0
-242 234 0
-242 241 0
-243 -9 0
-243 -40 0
243 9 40 0
-244 -41 0
-244 -243 0
244 41 243 0
-245 -10 0
-245 -128 0
245 10 128 0
-246 -129 0
-246 -245 0
246 129 245 0
247 -244 246 0
248 244 -246 0
-249 -247 0
-249 -248 0
-250 242 0
-250 249 0
-251 39 0
-251 250 0
-252 -36 0
-252 251 0
252 0
